NAME : portcgen-25-11
COMMENT : portcgen N=25, seed=11
TYPE : TSP
DIMENSION : 25
EDGE_WEIGHT_TYPE : EUC_2D
NODE_COORD_SECTION
1 -351806 -1792
2 83756 -249981
3 -313308 65855
4 -170835 13408
5 163349 -148624
6 88193 -544662
7 167620 -105617
8 201378 327562
9 73093 -121729
10 -122751 -201201
11 31642 27487
12 78101 271271
13 -373041 -204727
14 353103 228260
15 35960 -18289
16 -176056 187562
17 277052 -158566
18 244682 39472
19 -138234 -156256
20 32428 353554
21 9449 -47945
22 -46013 111712
23 189319 26605
24 -74362 98557
25 -34028 -10143
